% ----DATA VARIABLES----

t=12;%number of attributes
k=3;%max length of the support set
n=30;%number of positive instances
m=30;%number of negative instances
c=2;%number of atMostOne Constraints

% ----OMEGAS----

omegap= [| 1, 1, 1, 0, 0, 1, 1, 1, 0, 0, 0, 0|
 0, 0, 1, 0, 1, 0, 0, 0, 0, 1, 0, 0|
 1, 0, 0, 1, 0, 1, 0, 0, 0, 0, 1, 1|
 0, 0, 1, 0, 0, 0, 0, 1, 0, 0, 1, 1|
 0, 0, 1, 0, 0, 1, 0, 1, 0, 1, 1, 0|
 1, 1, 0, 1, 1, 0, 1, 0, 0, 1, 0, 1|
 0, 0, 1, 0, 1, 0, 0, 0, 1, 1, 1, 1|
 1, 1, 0, 1, 0, 0, 0, 0, 0, 1, 1, 0|
 0, 1, 0, 1, 1, 1, 1, 1, 1, 1, 0, 1|
 0, 1, 1, 1, 1, 0, 1, 0, 0, 1, 0, 0|
 1, 0, 0, 1, 0, 0, 1, 0, 0, 0, 0, 0|
 1, 0, 1, 0, 0, 1, 1, 0, 1, 1, 1, 0|
 0, 1, 0, 1, 1, 1, 0, 0, 1, 0, 0, 1|
 1, 0, 0, 0, 1, 1, 0, 1, 1, 0, 0, 0|
 1, 1, 1, 1, 1, 0, 0, 0, 0, 0, 1, 1|
 1, 1, 0, 1, 1, 0, 0, 0, 1, 1, 0, 1|
 1, 0, 1, 0, 1, 0, 0, 0, 0, 1, 0, 0|
 0, 1, 0, 1, 1, 0, 1, 1, 1, 0, 1, 1|
 0, 1, 0, 0, 1, 1, 1, 0, 1, 0, 1, 0|
 1, 0, 0, 0, 1, 1, 0, 1, 0, 1, 0, 1|
 0, 0, 1, 0, 0, 1, 0, 0, 0, 1, 0, 1|
 1, 0, 1, 1, 1, 1, 0, 1, 1, 0, 0, 0|
 0, 1, 0, 1, 0, 0, 0, 1, 0, 0, 1, 0|
 1, 0, 1, 0, 1, 0, 1, 1, 1, 1, 1, 1|
 1, 1, 1, 0, 0, 0, 1, 1, 0, 0, 0, 0|
 0, 0, 0, 0, 1, 0, 0, 1, 0, 1, 0, 0|
 0, 1, 1, 1, 1, 1, 0, 0, 0, 1, 1, 0|
 1, 0, 1, 0, 0, 1, 0, 1, 1, 1, 1, 1|
 1, 1, 0, 0, 1, 1, 0, 1, 1, 1, 1, 0|
 0, 1, 1, 1, 0, 0, 0, 1, 1, 0, 0, 1|];

omegan= [| 1, 1, 0, 0, 1, 1, 1, 1, 1, 0, 1, 0|
 1, 0, 1, 0, 0, 0, 1, 0, 1, 0, 1, 0|
 1, 1, 0, 0, 0, 0, 1, 1, 0, 1, 0, 1|
 1, 1, 1, 1, 0, 1, 1, 1, 1, 1, 0, 1|
 0, 0, 1, 1, 1, 1, 0, 1, 1, 1, 1, 1|
 0, 1, 1, 0, 1, 0, 1, 0, 0, 0, 1, 0|
 1, 0, 1, 1, 1, 0, 0, 0, 0, 1, 1, 1|
 0, 1, 0, 1, 1, 1, 1, 0, 1, 1, 1, 0|
 1, 1, 0, 0, 1, 0, 1, 1, 1, 1, 0, 0|
 1, 1, 1, 1, 0, 1, 0, 0, 1, 1, 1, 0|
 0, 1, 0, 1, 1, 0, 1, 1, 1, 0, 1, 0|
 1, 0, 1, 1, 0, 1, 0, 0, 1, 0, 1, 0|
 1, 0, 1, 1, 1, 1, 1, 0, 1, 1, 0, 1|
 1, 1, 0, 0, 0, 1, 1, 1, 1, 1, 1, 0|
 0, 0, 1, 0, 0, 0, 1, 0, 0, 1, 1, 0|
 0, 0, 1, 1, 1, 0, 0, 1, 1, 0, 0, 0|
 1, 0, 1, 0, 0, 1, 0, 0, 0, 0, 1, 1|
 1, 0, 0, 0, 0, 1, 0, 0, 1, 0, 0, 1|
 0, 1, 1, 0, 0, 1, 1, 0, 1, 1, 0, 1|
 0, 1, 0, 1, 1, 1, 0, 1, 0, 1, 0, 0|
 0, 0, 0, 1, 0, 1, 0, 0, 1, 0, 0, 0|
 0, 1, 1, 1, 1, 1, 0, 1, 0, 0, 0, 1|
 1, 1, 0, 0, 1, 0, 0, 1, 1, 1, 1, 1|
 1, 0, 0, 1, 1, 0, 0, 0, 0, 0, 0, 0|
 1, 0, 1, 1, 1, 1, 0, 0, 0, 0, 1, 1|
 0, 0, 0, 1, 0, 0, 1, 0, 1, 1, 1, 0|
 1, 0, 1, 0, 0, 0, 0, 1, 1, 1, 1, 1|
 0, 1, 1, 0, 1, 1, 1, 1, 0, 1, 0, 0|
 1, 0, 1, 0, 1, 0, 1, 0, 0, 0, 0, 1|
 0, 0, 0, 0, 0, 0, 1, 0, 0, 1, 0, 0|];

% ----CONSTRAINS----

atMostOne=[{9}, {2, 4, 1}];